benchmarks/ising_models/2DLattices/SqrLattices/J=1/12x12_square_lattice.wcnf
p wcnf 408 1056
w -2 0.367879 0
w 2 2.718282 0
w -3 0.367879 0
w 3 2.718282 0
w -5 0.367879 0
w 5 2.718282 0
w -6 0.367879 0
w 6 2.718282 0
w -8 0.367879 0
w 8 2.718282 0
w -9 0.367879 0
w 9 2.718282 0
w -11 0.367879 0
w 11 2.718282 0
w -12 0.367879 0
w 12 2.718282 0
w -14 0.367879 0
w 14 2.718282 0
w -15 0.367879 0
w 15 2.718282 0
w -17 0.367879 0
w 17 2.718282 0
w -18 0.367879 0
w 18 2.718282 0
w -20 0.367879 0
w 20 2.718282 0
w -21 0.367879 0
w 21 2.718282 0
w -23 0.367879 0
w 23 2.718282 0
w -24 0.367879 0
w 24 2.718282 0
w -26 0.367879 0
w 26 2.718282 0
w -27 0.367879 0
w 27 2.718282 0
w -29 0.367879 0
w 29 2.718282 0
w -30 0.367879 0
w 30 2.718282 0
w -32 0.367879 0
w 32 2.718282 0
w -33 0.367879 0
w 33 2.718282 0
w -35 0.367879 0
w 35 2.718282 0
w -37 0.367879 0
w 37 2.718282 0
w -38 0.367879 0
w 38 2.718282 0
w -40 0.367879 0
w 40 2.718282 0
w -41 0.367879 0
w 41 2.718282 0
w -43 0.367879 0
w 43 2.718282 0
w -44 0.367879 0
w 44 2.718282 0
w -46 0.367879 0
w 46 2.718282 0
w -47 0.367879 0
w 47 2.718282 0
w -49 0.367879 0
w 49 2.718282 0
w -50 0.367879 0
w 50 2.718282 0
w -52 0.367879 0
w 52 2.718282 0
w -53 0.367879 0
w 53 2.718282 0
w -55 0.367879 0
w 55 2.718282 0
w -56 0.367879 0
w 56 2.718282 0
w -58 0.367879 0
w 58 2.718282 0
w -59 0.367879 0
w 59 2.718282 0
w -61 0.367879 0
w 61 2.718282 0
w -62 0.367879 0
w 62 2.718282 0
w -64 0.367879 0
w 64 2.718282 0
w -65 0.367879 0
w 65 2.718282 0
w -67 0.367879 0
w 67 2.718282 0
w -68 0.367879 0
w 68 2.718282 0
w -70 0.367879 0
w 70 2.718282 0
w -72 0.367879 0
w 72 2.718282 0
w -73 0.367879 0
w 73 2.718282 0
w -75 0.367879 0
w 75 2.718282 0
w -76 0.367879 0
w 76 2.718282 0
w -78 0.367879 0
w 78 2.718282 0
w -79 0.367879 0
w 79 2.718282 0
w -81 0.367879 0
w 81 2.718282 0
w -82 0.367879 0
w 82 2.718282 0
w -84 0.367879 0
w 84 2.718282 0
w -85 0.367879 0
w 85 2.718282 0
w -87 0.367879 0
w 87 2.718282 0
w -88 0.367879 0
w 88 2.718282 0
w -90 0.367879 0
w 90 2.718282 0
w -91 0.367879 0
w 91 2.718282 0
w -93 0.367879 0
w 93 2.718282 0
w -94 0.367879 0
w 94 2.718282 0
w -96 0.367879 0
w 96 2.718282 0
w -97 0.367879 0
w 97 2.718282 0
w -99 0.367879 0
w 99 2.718282 0
w -100 0.367879 0
w 100 2.718282 0
w -102 0.367879 0
w 102 2.718282 0
w -103 0.367879 0
w 103 2.718282 0
w -105 0.367879 0
w 105 2.718282 0
w -107 0.367879 0
w 107 2.718282 0
w -108 0.367879 0
w 108 2.718282 0
w -110 0.367879 0
w 110 2.718282 0
w -111 0.367879 0
w 111 2.718282 0
w -113 0.367879 0
w 113 2.718282 0
w -114 0.367879 0
w 114 2.718282 0
w -116 0.367879 0
w 116 2.718282 0
w -117 0.367879 0
w 117 2.718282 0
w -119 0.367879 0
w 119 2.718282 0
w -120 0.367879 0
w 120 2.718282 0
w -122 0.367879 0
w 122 2.718282 0
w -123 0.367879 0
w 123 2.718282 0
w -125 0.367879 0
w 125 2.718282 0
w -126 0.367879 0
w 126 2.718282 0
w -128 0.367879 0
w 128 2.718282 0
w -129 0.367879 0
w 129 2.718282 0
w -131 0.367879 0
w 131 2.718282 0
w -132 0.367879 0
w 132 2.718282 0
w -134 0.367879 0
w 134 2.718282 0
w -135 0.367879 0
w 135 2.718282 0
w -137 0.367879 0
w 137 2.718282 0
w -138 0.367879 0
w 138 2.718282 0
w -140 0.367879 0
w 140 2.718282 0
w -142 0.367879 0
w 142 2.718282 0
w -143 0.367879 0
w 143 2.718282 0
w -145 0.367879 0
w 145 2.718282 0
w -146 0.367879 0
w 146 2.718282 0
w -148 0.367879 0
w 148 2.718282 0
w -149 0.367879 0
w 149 2.718282 0
w -151 0.367879 0
w 151 2.718282 0
w -152 0.367879 0
w 152 2.718282 0
w -154 0.367879 0
w 154 2.718282 0
w -155 0.367879 0
w 155 2.718282 0
w -157 0.367879 0
w 157 2.718282 0
w -158 0.367879 0
w 158 2.718282 0
w -160 0.367879 0
w 160 2.718282 0
w -161 0.367879 0
w 161 2.718282 0
w -163 0.367879 0
w 163 2.718282 0
w -164 0.367879 0
w 164 2.718282 0
w -166 0.367879 0
w 166 2.718282 0
w -167 0.367879 0
w 167 2.718282 0
w -169 0.367879 0
w 169 2.718282 0
w -170 0.367879 0
w 170 2.718282 0
w -172 0.367879 0
w 172 2.718282 0
w -173 0.367879 0
w 173 2.718282 0
w -175 0.367879 0
w 175 2.718282 0
w -177 0.367879 0
w 177 2.718282 0
w -178 0.367879 0
w 178 2.718282 0
w -180 0.367879 0
w 180 2.718282 0
w -181 0.367879 0
w 181 2.718282 0
w -183 0.367879 0
w 183 2.718282 0
w -184 0.367879 0
w 184 2.718282 0
w -186 0.367879 0
w 186 2.718282 0
w -187 0.367879 0
w 187 2.718282 0
w -189 0.367879 0
w 189 2.718282 0
w -190 0.367879 0
w 190 2.718282 0
w -192 0.367879 0
w 192 2.718282 0
w -193 0.367879 0
w 193 2.718282 0
w -195 0.367879 0
w 195 2.718282 0
w -196 0.367879 0
w 196 2.718282 0
w -198 0.367879 0
w 198 2.718282 0
w -199 0.367879 0
w 199 2.718282 0
w -201 0.367879 0
w 201 2.718282 0
w -202 0.367879 0
w 202 2.718282 0
w -204 0.367879 0
w 204 2.718282 0
w -205 0.367879 0
w 205 2.718282 0
w -207 0.367879 0
w 207 2.718282 0
w -208 0.367879 0
w 208 2.718282 0
w -210 0.367879 0
w 210 2.718282 0
w -212 0.367879 0
w 212 2.718282 0
w -213 0.367879 0
w 213 2.718282 0
w -215 0.367879 0
w 215 2.718282 0
w -216 0.367879 0
w 216 2.718282 0
w -218 0.367879 0
w 218 2.718282 0
w -219 0.367879 0
w 219 2.718282 0
w -221 0.367879 0
w 221 2.718282 0
w -222 0.367879 0
w 222 2.718282 0
w -224 0.367879 0
w 224 2.718282 0
w -225 0.367879 0
w 225 2.718282 0
w -227 0.367879 0
w 227 2.718282 0
w -228 0.367879 0
w 228 2.718282 0
w -230 0.367879 0
w 230 2.718282 0
w -231 0.367879 0
w 231 2.718282 0
w -233 0.367879 0
w 233 2.718282 0
w -234 0.367879 0
w 234 2.718282 0
w -236 0.367879 0
w 236 2.718282 0
w -237 0.367879 0
w 237 2.718282 0
w -239 0.367879 0
w 239 2.718282 0
w -240 0.367879 0
w 240 2.718282 0
w -242 0.367879 0
w 242 2.718282 0
w -243 0.367879 0
w 243 2.718282 0
w -245 0.367879 0
w 245 2.718282 0
w -247 0.367879 0
w 247 2.718282 0
w -248 0.367879 0
w 248 2.718282 0
w -250 0.367879 0
w 250 2.718282 0
w -251 0.367879 0
w 251 2.718282 0
w -253 0.367879 0
w 253 2.718282 0
w -254 0.367879 0
w 254 2.718282 0
w -256 0.367879 0
w 256 2.718282 0
w -257 0.367879 0
w 257 2.718282 0
w -259 0.367879 0
w 259 2.718282 0
w -260 0.367879 0
w 260 2.718282 0
w -262 0.367879 0
w 262 2.718282 0
w -263 0.367879 0
w 263 2.718282 0
w -265 0.367879 0
w 265 2.718282 0
w -266 0.367879 0
w 266 2.718282 0
w -268 0.367879 0
w 268 2.718282 0
w -269 0.367879 0
w 269 2.718282 0
w -271 0.367879 0
w 271 2.718282 0
w -272 0.367879 0
w 272 2.718282 0
w -274 0.367879 0
w 274 2.718282 0
w -275 0.367879 0
w 275 2.718282 0
w -277 0.367879 0
w 277 2.718282 0
w -278 0.367879 0
w 278 2.718282 0
w -280 0.367879 0
w 280 2.718282 0
w -282 0.367879 0
w 282 2.718282 0
w -283 0.367879 0
w 283 2.718282 0
w -285 0.367879 0
w 285 2.718282 0
w -286 0.367879 0
w 286 2.718282 0
w -288 0.367879 0
w 288 2.718282 0
w -289 0.367879 0
w 289 2.718282 0
w -291 0.367879 0
w 291 2.718282 0
w -292 0.367879 0
w 292 2.718282 0
w -294 0.367879 0
w 294 2.718282 0
w -295 0.367879 0
w 295 2.718282 0
w -297 0.367879 0
w 297 2.718282 0
w -298 0.367879 0
w 298 2.718282 0
w -300 0.367879 0
w 300 2.718282 0
w -301 0.367879 0
w 301 2.718282 0
w -303 0.367879 0
w 303 2.718282 0
w -304 0.367879 0
w 304 2.718282 0
w -306 0.367879 0
w 306 2.718282 0
w -307 0.367879 0
w 307 2.718282 0
w -309 0.367879 0
w 309 2.718282 0
w -310 0.367879 0
w 310 2.718282 0
w -312 0.367879 0
w 312 2.718282 0
w -313 0.367879 0
w 313 2.718282 0
w -315 0.367879 0
w 315 2.718282 0
w -317 0.367879 0
w 317 2.718282 0
w -318 0.367879 0
w 318 2.718282 0
w -320 0.367879 0
w 320 2.718282 0
w -321 0.367879 0
w 321 2.718282 0
w -323 0.367879 0
w 323 2.718282 0
w -324 0.367879 0
w 324 2.718282 0
w -326 0.367879 0
w 326 2.718282 0
w -327 0.367879 0
w 327 2.718282 0
w -329 0.367879 0
w 329 2.718282 0
w -330 0.367879 0
w 330 2.718282 0
w -332 0.367879 0
w 332 2.718282 0
w -333 0.367879 0
w 333 2.718282 0
w -335 0.367879 0
w 335 2.718282 0
w -336 0.367879 0
w 336 2.718282 0
w -338 0.367879 0
w 338 2.718282 0
w -339 0.367879 0
w 339 2.718282 0
w -341 0.367879 0
w 341 2.718282 0
w -342 0.367879 0
w 342 2.718282 0
w -344 0.367879 0
w 344 2.718282 0
w -345 0.367879 0
w 345 2.718282 0
w -347 0.367879 0
w 347 2.718282 0
w -348 0.367879 0
w 348 2.718282 0
w -350 0.367879 0
w 350 2.718282 0
w -352 0.367879 0
w 352 2.718282 0
w -353 0.367879 0
w 353 2.718282 0
w -355 0.367879 0
w 355 2.718282 0
w -356 0.367879 0
w 356 2.718282 0
w -358 0.367879 0
w 358 2.718282 0
w -359 0.367879 0
w 359 2.718282 0
w -361 0.367879 0
w 361 2.718282 0
w -362 0.367879 0
w 362 2.718282 0
w -364 0.367879 0
w 364 2.718282 0
w -365 0.367879 0
w 365 2.718282 0
w -367 0.367879 0
w 367 2.718282 0
w -368 0.367879 0
w 368 2.718282 0
w -370 0.367879 0
w 370 2.718282 0
w -371 0.367879 0
w 371 2.718282 0
w -373 0.367879 0
w 373 2.718282 0
w -374 0.367879 0
w 374 2.718282 0
w -376 0.367879 0
w 376 2.718282 0
w -377 0.367879 0
w 377 2.718282 0
w -379 0.367879 0
w 379 2.718282 0
w -380 0.367879 0
w 380 2.718282 0
w -382 0.367879 0
w 382 2.718282 0
w -383 0.367879 0
w 383 2.718282 0
w -385 0.367879 0
w 385 2.718282 0
w -387 0.367879 0
w 387 2.718282 0
w -389 0.367879 0
w 389 2.718282 0
w -391 0.367879 0
w 391 2.718282 0
w -393 0.367879 0
w 393 2.718282 0
w -395 0.367879 0
w 395 2.718282 0
w -397 0.367879 0
w 397 2.718282 0
w -399 0.367879 0
w 399 2.718282 0
w -401 0.367879 0
w 401 2.718282 0
w -403 0.367879 0
w 403 2.718282 0
w -405 0.367879 0
w 405 2.718282 0
w -407 0.367879 0
w 407 2.718282 0
2 1 4 0
2 -1 -4 0
-2 1 -4 0
-2 -1 4 0
3 1 36 0
3 -1 -36 0
-3 1 -36 0
-3 -1 36 0
5 4 7 0
5 -4 -7 0
-5 4 -7 0
-5 -4 7 0
6 4 39 0
6 -4 -39 0
-6 4 -39 0
-6 -4 39 0
8 7 10 0
8 -7 -10 0
-8 7 -10 0
-8 -7 10 0
9 7 42 0
9 -7 -42 0
-9 7 -42 0
-9 -7 42 0
11 10 13 0
11 -10 -13 0
-11 10 -13 0
-11 -10 13 0
12 10 45 0
12 -10 -45 0
-12 10 -45 0
-12 -10 45 0
14 13 16 0
14 -13 -16 0
-14 13 -16 0
-14 -13 16 0
15 13 48 0
15 -13 -48 0
-15 13 -48 0
-15 -13 48 0
17 16 19 0
17 -16 -19 0
-17 16 -19 0
-17 -16 19 0
18 16 51 0
18 -16 -51 0
-18 16 -51 0
-18 -16 51 0
20 19 22 0
20 -19 -22 0
-20 19 -22 0
-20 -19 22 0
21 19 54 0
21 -19 -54 0
-21 19 -54 0
-21 -19 54 0
23 22 25 0
23 -22 -25 0
-23 22 -25 0
-23 -22 25 0
24 22 57 0
24 -22 -57 0
-24 22 -57 0
-24 -22 57 0
26 25 28 0
26 -25 -28 0
-26 25 -28 0
-26 -25 28 0
27 25 60 0
27 -25 -60 0
-27 25 -60 0
-27 -25 60 0
29 28 31 0
29 -28 -31 0
-29 28 -31 0
-29 -28 31 0
30 28 63 0
30 -28 -63 0
-30 28 -63 0
-30 -28 63 0
32 31 34 0
32 -31 -34 0
-32 31 -34 0
-32 -31 34 0
33 31 66 0
33 -31 -66 0
-33 31 -66 0
-33 -31 66 0
35 34 69 0
35 -34 -69 0
-35 34 -69 0
-35 -34 69 0
37 36 39 0
37 -36 -39 0
-37 36 -39 0
-37 -36 39 0
38 36 71 0
38 -36 -71 0
-38 36 -71 0
-38 -36 71 0
40 39 42 0
40 -39 -42 0
-40 39 -42 0
-40 -39 42 0
41 39 74 0
41 -39 -74 0
-41 39 -74 0
-41 -39 74 0
43 42 45 0
43 -42 -45 0
-43 42 -45 0
-43 -42 45 0
44 42 77 0
44 -42 -77 0
-44 42 -77 0
-44 -42 77 0
46 45 48 0
46 -45 -48 0
-46 45 -48 0
-46 -45 48 0
47 45 80 0
47 -45 -80 0
-47 45 -80 0
-47 -45 80 0
49 48 51 0
49 -48 -51 0
-49 48 -51 0
-49 -48 51 0
50 48 83 0
50 -48 -83 0
-50 48 -83 0
-50 -48 83 0
52 51 54 0
52 -51 -54 0
-52 51 -54 0
-52 -51 54 0
53 51 86 0
53 -51 -86 0
-53 51 -86 0
-53 -51 86 0
55 54 57 0
55 -54 -57 0
-55 54 -57 0
-55 -54 57 0
56 54 89 0
56 -54 -89 0
-56 54 -89 0
-56 -54 89 0
58 57 60 0
58 -57 -60 0
-58 57 -60 0
-58 -57 60 0
59 57 92 0
59 -57 -92 0
-59 57 -92 0
-59 -57 92 0
61 60 63 0
61 -60 -63 0
-61 60 -63 0
-61 -60 63 0
62 60 95 0
62 -60 -95 0
-62 60 -95 0
-62 -60 95 0
64 63 66 0
64 -63 -66 0
-64 63 -66 0
-64 -63 66 0
65 63 98 0
65 -63 -98 0
-65 63 -98 0
-65 -63 98 0
67 66 69 0
67 -66 -69 0
-67 66 -69 0
-67 -66 69 0
68 66 101 0
68 -66 -101 0
-68 66 -101 0
-68 -66 101 0
70 69 104 0
70 -69 -104 0
-70 69 -104 0
-70 -69 104 0
72 71 74 0
72 -71 -74 0
-72 71 -74 0
-72 -71 74 0
73 71 106 0
73 -71 -106 0
-73 71 -106 0
-73 -71 106 0
75 74 77 0
75 -74 -77 0
-75 74 -77 0
-75 -74 77 0
76 74 109 0
76 -74 -109 0
-76 74 -109 0
-76 -74 109 0
78 77 80 0
78 -77 -80 0
-78 77 -80 0
-78 -77 80 0
79 77 112 0
79 -77 -112 0
-79 77 -112 0
-79 -77 112 0
81 80 83 0
81 -80 -83 0
-81 80 -83 0
-81 -80 83 0
82 80 115 0
82 -80 -115 0
-82 80 -115 0
-82 -80 115 0
84 83 86 0
84 -83 -86 0
-84 83 -86 0
-84 -83 86 0
85 83 118 0
85 -83 -118 0
-85 83 -118 0
-85 -83 118 0
87 86 89 0
87 -86 -89 0
-87 86 -89 0
-87 -86 89 0
88 86 121 0
88 -86 -121 0
-88 86 -121 0
-88 -86 121 0
90 89 92 0
90 -89 -92 0
-90 89 -92 0
-90 -89 92 0
91 89 124 0
91 -89 -124 0
-91 89 -124 0
-91 -89 124 0
93 92 95 0
93 -92 -95 0
-93 92 -95 0
-93 -92 95 0
94 92 127 0
94 -92 -127 0
-94 92 -127 0
-94 -92 127 0
96 95 98 0
96 -95 -98 0
-96 95 -98 0
-96 -95 98 0
97 95 130 0
97 -95 -130 0
-97 95 -130 0
-97 -95 130 0
99 98 101 0
99 -98 -101 0
-99 98 -101 0
-99 -98 101 0
100 98 133 0
100 -98 -133 0
-100 98 -133 0
-100 -98 133 0
102 101 104 0
102 -101 -104 0
-102 101 -104 0
-102 -101 104 0
103 101 136 0
103 -101 -136 0
-103 101 -136 0
-103 -101 136 0
105 104 139 0
105 -104 -139 0
-105 104 -139 0
-105 -104 139 0
107 106 109 0
107 -106 -109 0
-107 106 -109 0
-107 -106 109 0
108 106 141 0
108 -106 -141 0
-108 106 -141 0
-108 -106 141 0
110 109 112 0
110 -109 -112 0
-110 109 -112 0
-110 -109 112 0
111 109 144 0
111 -109 -144 0
-111 109 -144 0
-111 -109 144 0
113 112 115 0
113 -112 -115 0
-113 112 -115 0
-113 -112 115 0
114 112 147 0
114 -112 -147 0
-114 112 -147 0
-114 -112 147 0
116 115 118 0
116 -115 -118 0
-116 115 -118 0
-116 -115 118 0
117 115 150 0
117 -115 -150 0
-117 115 -150 0
-117 -115 150 0
119 118 121 0
119 -118 -121 0
-119 118 -121 0
-119 -118 121 0
120 118 153 0
120 -118 -153 0
-120 118 -153 0
-120 -118 153 0
122 121 124 0
122 -121 -124 0
-122 121 -124 0
-122 -121 124 0
123 121 156 0
123 -121 -156 0
-123 121 -156 0
-123 -121 156 0
125 124 127 0
125 -124 -127 0
-125 124 -127 0
-125 -124 127 0
126 124 159 0
126 -124 -159 0
-126 124 -159 0
-126 -124 159 0
128 127 130 0
128 -127 -130 0
-128 127 -130 0
-128 -127 130 0
129 127 162 0
129 -127 -162 0
-129 127 -162 0
-129 -127 162 0
131 130 133 0
131 -130 -133 0
-131 130 -133 0
-131 -130 133 0
132 130 165 0
132 -130 -165 0
-132 130 -165 0
-132 -130 165 0
134 133 136 0
134 -133 -136 0
-134 133 -136 0
-134 -133 136 0
135 133 168 0
135 -133 -168 0
-135 133 -168 0
-135 -133 168 0
137 136 139 0
137 -136 -139 0
-137 136 -139 0
-137 -136 139 0
138 136 171 0
138 -136 -171 0
-138 136 -171 0
-138 -136 171 0
140 139 174 0
140 -139 -174 0
-140 139 -174 0
-140 -139 174 0
142 141 144 0
142 -141 -144 0
-142 141 -144 0
-142 -141 144 0
143 141 176 0
143 -141 -176 0
-143 141 -176 0
-143 -141 176 0
145 144 147 0
145 -144 -147 0
-145 144 -147 0
-145 -144 147 0
146 144 179 0
146 -144 -179 0
-146 144 -179 0
-146 -144 179 0
148 147 150 0
148 -147 -150 0
-148 147 -150 0
-148 -147 150 0
149 147 182 0
149 -147 -182 0
-149 147 -182 0
-149 -147 182 0
151 150 153 0
151 -150 -153 0
-151 150 -153 0
-151 -150 153 0
152 150 185 0
152 -150 -185 0
-152 150 -185 0
-152 -150 185 0
154 153 156 0
154 -153 -156 0
-154 153 -156 0
-154 -153 156 0
155 153 188 0
155 -153 -188 0
-155 153 -188 0
-155 -153 188 0
157 156 159 0
157 -156 -159 0
-157 156 -159 0
-157 -156 159 0
158 156 191 0
158 -156 -191 0
-158 156 -191 0
-158 -156 191 0
160 159 162 0
160 -159 -162 0
-160 159 -162 0
-160 -159 162 0
161 159 194 0
161 -159 -194 0
-161 159 -194 0
-161 -159 194 0
163 162 165 0
163 -162 -165 0
-163 162 -165 0
-163 -162 165 0
164 162 197 0
164 -162 -197 0
-164 162 -197 0
-164 -162 197 0
166 165 168 0
166 -165 -168 0
-166 165 -168 0
-166 -165 168 0
167 165 200 0
167 -165 -200 0
-167 165 -200 0
-167 -165 200 0
169 168 171 0
169 -168 -171 0
-169 168 -171 0
-169 -168 171 0
170 168 203 0
170 -168 -203 0
-170 168 -203 0
-170 -168 203 0
172 171 174 0
172 -171 -174 0
-172 171 -174 0
-172 -171 174 0
173 171 206 0
173 -171 -206 0
-173 171 -206 0
-173 -171 206 0
175 174 209 0
175 -174 -209 0
-175 174 -209 0
-175 -174 209 0
177 176 179 0
177 -176 -179 0
-177 176 -179 0
-177 -176 179 0
178 176 211 0
178 -176 -211 0
-178 176 -211 0
-178 -176 211 0
180 179 182 0
180 -179 -182 0
-180 179 -182 0
-180 -179 182 0
181 179 214 0
181 -179 -214 0
-181 179 -214 0
-181 -179 214 0
183 182 185 0
183 -182 -185 0
-183 182 -185 0
-183 -182 185 0
184 182 217 0
184 -182 -217 0
-184 182 -217 0
-184 -182 217 0
186 185 188 0
186 -185 -188 0
-186 185 -188 0
-186 -185 188 0
187 185 220 0
187 -185 -220 0
-187 185 -220 0
-187 -185 220 0
189 188 191 0
189 -188 -191 0
-189 188 -191 0
-189 -188 191 0
190 188 223 0
190 -188 -223 0
-190 188 -223 0
-190 -188 223 0
192 191 194 0
192 -191 -194 0
-192 191 -194 0
-192 -191 194 0
193 191 226 0
193 -191 -226 0
-193 191 -226 0
-193 -191 226 0
195 194 197 0
195 -194 -197 0
-195 194 -197 0
-195 -194 197 0
196 194 229 0
196 -194 -229 0
-196 194 -229 0
-196 -194 229 0
198 197 200 0
198 -197 -200 0
-198 197 -200 0
-198 -197 200 0
199 197 232 0
199 -197 -232 0
-199 197 -232 0
-199 -197 232 0
201 200 203 0
201 -200 -203 0
-201 200 -203 0
-201 -200 203 0
202 200 235 0
202 -200 -235 0
-202 200 -235 0
-202 -200 235 0
204 203 206 0
204 -203 -206 0
-204 203 -206 0
-204 -203 206 0
205 203 238 0
205 -203 -238 0
-205 203 -238 0
-205 -203 238 0
207 206 209 0
207 -206 -209 0
-207 206 -209 0
-207 -206 209 0
208 206 241 0
208 -206 -241 0
-208 206 -241 0
-208 -206 241 0
210 209 244 0
210 -209 -244 0
-210 209 -244 0
-210 -209 244 0
212 211 214 0
212 -211 -214 0
-212 211 -214 0
-212 -211 214 0
213 211 246 0
213 -211 -246 0
-213 211 -246 0
-213 -211 246 0
215 214 217 0
215 -214 -217 0
-215 214 -217 0
-215 -214 217 0
216 214 249 0
216 -214 -249 0
-216 214 -249 0
-216 -214 249 0
218 217 220 0
218 -217 -220 0
-218 217 -220 0
-218 -217 220 0
219 217 252 0
219 -217 -252 0
-219 217 -252 0
-219 -217 252 0
221 220 223 0
221 -220 -223 0
-221 220 -223 0
-221 -220 223 0
222 220 255 0
222 -220 -255 0
-222 220 -255 0
-222 -220 255 0
224 223 226 0
224 -223 -226 0
-224 223 -226 0
-224 -223 226 0
225 223 258 0
225 -223 -258 0
-225 223 -258 0
-225 -223 258 0
227 226 229 0
227 -226 -229 0
-227 226 -229 0
-227 -226 229 0
228 226 261 0
228 -226 -261 0
-228 226 -261 0
-228 -226 261 0
230 229 232 0
230 -229 -232 0
-230 229 -232 0
-230 -229 232 0
231 229 264 0
231 -229 -264 0
-231 229 -264 0
-231 -229 264 0
233 232 235 0
233 -232 -235 0
-233 232 -235 0
-233 -232 235 0
234 232 267 0
234 -232 -267 0
-234 232 -267 0
-234 -232 267 0
236 235 238 0
236 -235 -238 0
-236 235 -238 0
-236 -235 238 0
237 235 270 0
237 -235 -270 0
-237 235 -270 0
-237 -235 270 0
239 238 241 0
239 -238 -241 0
-239 238 -241 0
-239 -238 241 0
240 238 273 0
240 -238 -273 0
-240 238 -273 0
-240 -238 273 0
242 241 244 0
242 -241 -244 0
-242 241 -244 0
-242 -241 244 0
243 241 276 0
243 -241 -276 0
-243 241 -276 0
-243 -241 276 0
245 244 279 0
245 -244 -279 0
-245 244 -279 0
-245 -244 279 0
247 246 249 0
247 -246 -249 0
-247 246 -249 0
-247 -246 249 0
248 246 281 0
248 -246 -281 0
-248 246 -281 0
-248 -246 281 0
250 249 252 0
250 -249 -252 0
-250 249 -252 0
-250 -249 252 0
251 249 284 0
251 -249 -284 0
-251 249 -284 0
-251 -249 284 0
253 252 255 0
253 -252 -255 0
-253 252 -255 0
-253 -252 255 0
254 252 287 0
254 -252 -287 0
-254 252 -287 0
-254 -252 287 0
256 255 258 0
256 -255 -258 0
-256 255 -258 0
-256 -255 258 0
257 255 290 0
257 -255 -290 0
-257 255 -290 0
-257 -255 290 0
259 258 261 0
259 -258 -261 0
-259 258 -261 0
-259 -258 261 0
260 258 293 0
260 -258 -293 0
-260 258 -293 0
-260 -258 293 0
262 261 264 0
262 -261 -264 0
-262 261 -264 0
-262 -261 264 0
263 261 296 0
263 -261 -296 0
-263 261 -296 0
-263 -261 296 0
265 264 267 0
265 -264 -267 0
-265 264 -267 0
-265 -264 267 0
266 264 299 0
266 -264 -299 0
-266 264 -299 0
-266 -264 299 0
268 267 270 0
268 -267 -270 0
-268 267 -270 0
-268 -267 270 0
269 267 302 0
269 -267 -302 0
-269 267 -302 0
-269 -267 302 0
271 270 273 0
271 -270 -273 0
-271 270 -273 0
-271 -270 273 0
272 270 305 0
272 -270 -305 0
-272 270 -305 0
-272 -270 305 0
274 273 276 0
274 -273 -276 0
-274 273 -276 0
-274 -273 276 0
275 273 308 0
275 -273 -308 0
-275 273 -308 0
-275 -273 308 0
277 276 279 0
277 -276 -279 0
-277 276 -279 0
-277 -276 279 0
278 276 311 0
278 -276 -311 0
-278 276 -311 0
-278 -276 311 0
280 279 314 0
280 -279 -314 0
-280 279 -314 0
-280 -279 314 0
282 281 284 0
282 -281 -284 0
-282 281 -284 0
-282 -281 284 0
283 281 316 0
283 -281 -316 0
-283 281 -316 0
-283 -281 316 0
285 284 287 0
285 -284 -287 0
-285 284 -287 0
-285 -284 287 0
286 284 319 0
286 -284 -319 0
-286 284 -319 0
-286 -284 319 0
288 287 290 0
288 -287 -290 0
-288 287 -290 0
-288 -287 290 0
289 287 322 0
289 -287 -322 0
-289 287 -322 0
-289 -287 322 0
291 290 293 0
291 -290 -293 0
-291 290 -293 0
-291 -290 293 0
292 290 325 0
292 -290 -325 0
-292 290 -325 0
-292 -290 325 0
294 293 296 0
294 -293 -296 0
-294 293 -296 0
-294 -293 296 0
295 293 328 0
295 -293 -328 0
-295 293 -328 0
-295 -293 328 0
297 296 299 0
297 -296 -299 0
-297 296 -299 0
-297 -296 299 0
298 296 331 0
298 -296 -331 0
-298 296 -331 0
-298 -296 331 0
300 299 302 0
300 -299 -302 0
-300 299 -302 0
-300 -299 302 0
301 299 334 0
301 -299 -334 0
-301 299 -334 0
-301 -299 334 0
303 302 305 0
303 -302 -305 0
-303 302 -305 0
-303 -302 305 0
304 302 337 0
304 -302 -337 0
-304 302 -337 0
-304 -302 337 0
306 305 308 0
306 -305 -308 0
-306 305 -308 0
-306 -305 308 0
307 305 340 0
307 -305 -340 0
-307 305 -340 0
-307 -305 340 0
309 308 311 0
309 -308 -311 0
-309 308 -311 0
-309 -308 311 0
310 308 343 0
310 -308 -343 0
-310 308 -343 0
-310 -308 343 0
312 311 314 0
312 -311 -314 0
-312 311 -314 0
-312 -311 314 0
313 311 346 0
313 -311 -346 0
-313 311 -346 0
-313 -311 346 0
315 314 349 0
315 -314 -349 0
-315 314 -349 0
-315 -314 349 0
317 316 319 0
317 -316 -319 0
-317 316 -319 0
-317 -316 319 0
318 316 351 0
318 -316 -351 0
-318 316 -351 0
-318 -316 351 0
320 319 322 0
320 -319 -322 0
-320 319 -322 0
-320 -319 322 0
321 319 354 0
321 -319 -354 0
-321 319 -354 0
-321 -319 354 0
323 322 325 0
323 -322 -325 0
-323 322 -325 0
-323 -322 325 0
324 322 357 0
324 -322 -357 0
-324 322 -357 0
-324 -322 357 0
326 325 328 0
326 -325 -328 0
-326 325 -328 0
-326 -325 328 0
327 325 360 0
327 -325 -360 0
-327 325 -360 0
-327 -325 360 0
329 328 331 0
329 -328 -331 0
-329 328 -331 0
-329 -328 331 0
330 328 363 0
330 -328 -363 0
-330 328 -363 0
-330 -328 363 0
332 331 334 0
332 -331 -334 0
-332 331 -334 0
-332 -331 334 0
333 331 366 0
333 -331 -366 0
-333 331 -366 0
-333 -331 366 0
335 334 337 0
335 -334 -337 0
-335 334 -337 0
-335 -334 337 0
336 334 369 0
336 -334 -369 0
-336 334 -369 0
-336 -334 369 0
338 337 340 0
338 -337 -340 0
-338 337 -340 0
-338 -337 340 0
339 337 372 0
339 -337 -372 0
-339 337 -372 0
-339 -337 372 0
341 340 343 0
341 -340 -343 0
-341 340 -343 0
-341 -340 343 0
342 340 375 0
342 -340 -375 0
-342 340 -375 0
-342 -340 375 0
344 343 346 0
344 -343 -346 0
-344 343 -346 0
-344 -343 346 0
345 343 378 0
345 -343 -378 0
-345 343 -378 0
-345 -343 378 0
347 346 349 0
347 -346 -349 0
-347 346 -349 0
-347 -346 349 0
348 346 381 0
348 -346 -381 0
-348 346 -381 0
-348 -346 381 0
350 349 384 0
350 -349 -384 0
-350 349 -384 0
-350 -349 384 0
352 351 354 0
352 -351 -354 0
-352 351 -354 0
-352 -351 354 0
353 351 386 0
353 -351 -386 0
-353 351 -386 0
-353 -351 386 0
355 354 357 0
355 -354 -357 0
-355 354 -357 0
-355 -354 357 0
356 354 388 0
356 -354 -388 0
-356 354 -388 0
-356 -354 388 0
358 357 360 0
358 -357 -360 0
-358 357 -360 0
-358 -357 360 0
359 357 390 0
359 -357 -390 0
-359 357 -390 0
-359 -357 390 0
361 360 363 0
361 -360 -363 0
-361 360 -363 0
-361 -360 363 0
362 360 392 0
362 -360 -392 0
-362 360 -392 0
-362 -360 392 0
364 363 366 0
364 -363 -366 0
-364 363 -366 0
-364 -363 366 0
365 363 394 0
365 -363 -394 0
-365 363 -394 0
-365 -363 394 0
367 366 369 0
367 -366 -369 0
-367 366 -369 0
-367 -366 369 0
368 366 396 0
368 -366 -396 0
-368 366 -396 0
-368 -366 396 0
370 369 372 0
370 -369 -372 0
-370 369 -372 0
-370 -369 372 0
371 369 398 0
371 -369 -398 0
-371 369 -398 0
-371 -369 398 0
373 372 375 0
373 -372 -375 0
-373 372 -375 0
-373 -372 375 0
374 372 400 0
374 -372 -400 0
-374 372 -400 0
-374 -372 400 0
376 375 378 0
376 -375 -378 0
-376 375 -378 0
-376 -375 378 0
377 375 402 0
377 -375 -402 0
-377 375 -402 0
-377 -375 402 0
379 378 381 0
379 -378 -381 0
-379 378 -381 0
-379 -378 381 0
380 378 404 0
380 -378 -404 0
-380 378 -404 0
-380 -378 404 0
382 381 384 0
382 -381 -384 0
-382 381 -384 0
-382 -381 384 0
383 381 406 0
383 -381 -406 0
-383 381 -406 0
-383 -381 406 0
385 384 408 0
385 -384 -408 0
-385 384 -408 0
-385 -384 408 0
387 386 388 0
387 -386 -388 0
-387 386 -388 0
-387 -386 388 0
389 388 390 0
389 -388 -390 0
-389 388 -390 0
-389 -388 390 0
391 390 392 0
391 -390 -392 0
-391 390 -392 0
-391 -390 392 0
393 392 394 0
393 -392 -394 0
-393 392 -394 0
-393 -392 394 0
395 394 396 0
395 -394 -396 0
-395 394 -396 0
-395 -394 396 0
397 396 398 0
397 -396 -398 0
-397 396 -398 0
-397 -396 398 0
399 398 400 0
399 -398 -400 0
-399 398 -400 0
-399 -398 400 0
401 400 402 0
401 -400 -402 0
-401 400 -402 0
-401 -400 402 0
403 402 404 0
403 -402 -404 0
-403 402 -404 0
-403 -402 404 0
405 404 406 0
405 -404 -406 0
-405 404 -406 0
-405 -404 406 0
407 406 408 0
407 -406 -408 0
-407 406 -408 0
-407 -406 408 0
