benchmarks/ising_models/2DLattices/SqrLattices/J=1/12x12_square_lattice
ISING
144
2 2 2 2 2 2 2 2 2 2 2 2 2 2 2 2 2 2 2 2 2 2 2 2 2 2 2 2 2 2 2 2 2 2 2 2 2 2 2 2 2 2 2 2 2 2 2 2 2 2 2 2 2 2 2 2 2 2 2 2 2 2 2 2 2 2 2 2 2 2 2 2 2 2 2 2 2 2 2 2 2 2 2 2 2 2 2 2 2 2 2 2 2 2 2 2 2 2 2 2 2 2 2 2 2 2 2 2 2 2 2 2 2 2 2 2 2 2 2 2 2 2 2 2 2 2 2 2 2 2 2 2 2 2 2 2 2 2 2 2 2 2 2 2
0 264 1 1
2 0 1
2 0 12
2 1 2
2 1 13
2 2 3
2 2 14
2 3 4
2 3 15
2 4 5
2 4 16
2 5 6
2 5 17
2 6 7
2 6 18
2 7 8
2 7 19
2 8 9
2 8 20
2 9 10
2 9 21
2 10 11
2 10 22
2 11 23
2 12 13
2 12 24
2 13 14
2 13 25
2 14 15
2 14 26
2 15 16
2 15 27
2 16 17
2 16 28
2 17 18
2 17 29
2 18 19
2 18 30
2 19 20
2 19 31
2 20 21
2 20 32
2 21 22
2 21 33
2 22 23
2 22 34
2 23 35
2 24 25
2 24 36
2 25 26
2 25 37
2 26 27
2 26 38
2 27 28
2 27 39
2 28 29
2 28 40
2 29 30
2 29 41
2 30 31
2 30 42
2 31 32
2 31 43
2 32 33
2 32 44
2 33 34
2 33 45
2 34 35
2 34 46
2 35 47
2 36 37
2 36 48
2 37 38
2 37 49
2 38 39
2 38 50
2 39 40
2 39 51
2 40 41
2 40 52
2 41 42
2 41 53
2 42 43
2 42 54
2 43 44
2 43 55
2 44 45
2 44 56
2 45 46
2 45 57
2 46 47
2 46 58
2 47 59
2 48 49
2 48 60
2 49 50
2 49 61
2 50 51
2 50 62
2 51 52
2 51 63
2 52 53
2 52 64
2 53 54
2 53 65
2 54 55
2 54 66
2 55 56
2 55 67
2 56 57
2 56 68
2 57 58
2 57 69
2 58 59
2 58 70
2 59 71
2 60 61
2 60 72
2 61 62
2 61 73
2 62 63
2 62 74
2 63 64
2 63 75
2 64 65
2 64 76
2 65 66
2 65 77
2 66 67
2 66 78
2 67 68
2 67 79
2 68 69
2 68 80
2 69 70
2 69 81
2 70 71
2 70 82
2 71 83
2 72 73
2 72 84
2 73 74
2 73 85
2 74 75
2 74 86
2 75 76
2 75 87
2 76 77
2 76 88
2 77 78
2 77 89
2 78 79
2 78 90
2 79 80
2 79 91
2 80 81
2 80 92
2 81 82
2 81 93
2 82 83
2 82 94
2 83 95
2 84 85
2 84 96
2 85 86
2 85 97
2 86 87
2 86 98
2 87 88
2 87 99
2 88 89
2 88 100
2 89 90
2 89 101
2 90 91
2 90 102
2 91 92
2 91 103
2 92 93
2 92 104
2 93 94
2 93 105
2 94 95
2 94 106
2 95 107
2 96 97
2 96 108
2 97 98
2 97 109
2 98 99
2 98 110
2 99 100
2 99 111
2 100 101
2 100 112
2 101 102
2 101 113
2 102 103
2 102 114
2 103 104
2 103 115
2 104 105
2 104 116
2 105 106
2 105 117
2 106 107
2 106 118
2 107 119
2 108 109
2 108 120
2 109 110
2 109 121
2 110 111
2 110 122
2 111 112
2 111 123
2 112 113
2 112 124
2 113 114
2 113 125
2 114 115
2 114 126
2 115 116
2 115 127
2 116 117
2 116 128
2 117 118
2 117 129
2 118 119
2 118 130
2 119 131
2 120 121
2 120 132
2 121 122
2 121 133
2 122 123
2 122 134
2 123 124
2 123 135
2 124 125
2 124 136
2 125 126
2 125 137
2 126 127
2 126 138
2 127 128
2 127 139
2 128 129
2 128 140
2 129 130
2 129 141
2 130 131
2 130 142
2 131 143
2 132 133
2 133 134
2 134 135
2 135 136
2 136 137
2 137 138
2 138 139
2 139 140
2 140 141
2 141 142
2 142 143

4
 1 -1
 -1 1
4
 1 -1
 -1 1
4
 1 -1
 -1 1
4
 1 -1
 -1 1
4
 1 -1
 -1 1
4
 1 -1
 -1 1
4
 1 -1
 -1 1
4
 1 -1
 -1 1
4
 1 -1
 -1 1
4
 1 -1
 -1 1
4
 1 -1
 -1 1
4
 1 -1
 -1 1
4
 1 -1
 -1 1
4
 1 -1
 -1 1
4
 1 -1
 -1 1
4
 1 -1
 -1 1
4
 1 -1
 -1 1
4
 1 -1
 -1 1
4
 1 -1
 -1 1
4
 1 -1
 -1 1
4
 1 -1
 -1 1
4
 1 -1
 -1 1
4
 1 -1
 -1 1
4
 1 -1
 -1 1
4
 1 -1
 -1 1
4
 1 -1
 -1 1
4
 1 -1
 -1 1
4
 1 -1
 -1 1
4
 1 -1
 -1 1
4
 1 -1
 -1 1
4
 1 -1
 -1 1
4
 1 -1
 -1 1
4
 1 -1
 -1 1
4
 1 -1
 -1 1
4
 1 -1
 -1 1
4
 1 -1
 -1 1
4
 1 -1
 -1 1
4
 1 -1
 -1 1
4
 1 -1
 -1 1
4
 1 -1
 -1 1
4
 1 -1
 -1 1
4
 1 -1
 -1 1
4
 1 -1
 -1 1
4
 1 -1
 -1 1
4
 1 -1
 -1 1
4
 1 -1
 -1 1
4
 1 -1
 -1 1
4
 1 -1
 -1 1
4
 1 -1
 -1 1
4
 1 -1
 -1 1
4
 1 -1
 -1 1
4
 1 -1
 -1 1
4
 1 -1
 -1 1
4
 1 -1
 -1 1
4
 1 -1
 -1 1
4
 1 -1
 -1 1
4
 1 -1
 -1 1
4
 1 -1
 -1 1
4
 1 -1
 -1 1
4
 1 -1
 -1 1
4
 1 -1
 -1 1
4
 1 -1
 -1 1
4
 1 -1
 -1 1
4
 1 -1
 -1 1
4
 1 -1
 -1 1
4
 1 -1
 -1 1
4
 1 -1
 -1 1
4
 1 -1
 -1 1
4
 1 -1
 -1 1
4
 1 -1
 -1 1
4
 1 -1
 -1 1
4
 1 -1
 -1 1
4
 1 -1
 -1 1
4
 1 -1
 -1 1
4
 1 -1
 -1 1
4
 1 -1
 -1 1
4
 1 -1
 -1 1
4
 1 -1
 -1 1
4
 1 -1
 -1 1
4
 1 -1
 -1 1
4
 1 -1
 -1 1
4
 1 -1
 -1 1
4
 1 -1
 -1 1
4
 1 -1
 -1 1
4
 1 -1
 -1 1
4
 1 -1
 -1 1
4
 1 -1
 -1 1
4
 1 -1
 -1 1
4
 1 -1
 -1 1
4
 1 -1
 -1 1
4
 1 -1
 -1 1
4
 1 -1
 -1 1
4
 1 -1
 -1 1
4
 1 -1
 -1 1
4
 1 -1
 -1 1
4
 1 -1
 -1 1
4
 1 -1
 -1 1
4
 1 -1
 -1 1
4
 1 -1
 -1 1
4
 1 -1
 -1 1
4
 1 -1
 -1 1
4
 1 -1
 -1 1
4
 1 -1
 -1 1
4
 1 -1
 -1 1
4
 1 -1
 -1 1
4
 1 -1
 -1 1
4
 1 -1
 -1 1
4
 1 -1
 -1 1
4
 1 -1
 -1 1
4
 1 -1
 -1 1
4
 1 -1
 -1 1
4
 1 -1
 -1 1
4
 1 -1
 -1 1
4
 1 -1
 -1 1
4
 1 -1
 -1 1
4
 1 -1
 -1 1
4
 1 -1
 -1 1
4
 1 -1
 -1 1
4
 1 -1
 -1 1
4
 1 -1
 -1 1
4
 1 -1
 -1 1
4
 1 -1
 -1 1
4
 1 -1
 -1 1
4
 1 -1
 -1 1
4
 1 -1
 -1 1
4
 1 -1
 -1 1
4
 1 -1
 -1 1
4
 1 -1
 -1 1
4
 1 -1
 -1 1
4
 1 -1
 -1 1
4
 1 -1
 -1 1
4
 1 -1
 -1 1
4
 1 -1
 -1 1
4
 1 -1
 -1 1
4
 1 -1
 -1 1
4
 1 -1
 -1 1
4
 1 -1
 -1 1
4
 1 -1
 -1 1
4
 1 -1
 -1 1
4
 1 -1
 -1 1
4
 1 -1
 -1 1
4
 1 -1
 -1 1
4
 1 -1
 -1 1
4
 1 -1
 -1 1
4
 1 -1
 -1 1
4
 1 -1
 -1 1
4
 1 -1
 -1 1
4
 1 -1
 -1 1
4
 1 -1
 -1 1
4
 1 -1
 -1 1
4
 1 -1
 -1 1
4
 1 -1
 -1 1
4
 1 -1
 -1 1
4
 1 -1
 -1 1
4
 1 -1
 -1 1
4
 1 -1
 -1 1
4
 1 -1
 -1 1
4
 1 -1
 -1 1
4
 1 -1
 -1 1
4
 1 -1
 -1 1
4
 1 -1
 -1 1
4
 1 -1
 -1 1
4
 1 -1
 -1 1
4
 1 -1
 -1 1
4
 1 -1
 -1 1
4
 1 -1
 -1 1
4
 1 -1
 -1 1
4
 1 -1
 -1 1
4
 1 -1
 -1 1
4
 1 -1
 -1 1
4
 1 -1
 -1 1
4
 1 -1
 -1 1
4
 1 -1
 -1 1
4
 1 -1
 -1 1
4
 1 -1
 -1 1
4
 1 -1
 -1 1
4
 1 -1
 -1 1
4
 1 -1
 -1 1
4
 1 -1
 -1 1
4
 1 -1
 -1 1
4
 1 -1
 -1 1
4
 1 -1
 -1 1
4
 1 -1
 -1 1
4
 1 -1
 -1 1
4
 1 -1
 -1 1
4
 1 -1
 -1 1
4
 1 -1
 -1 1
4
 1 -1
 -1 1
4
 1 -1
 -1 1
4
 1 -1
 -1 1
4
 1 -1
 -1 1
4
 1 -1
 -1 1
4
 1 -1
 -1 1
4
 1 -1
 -1 1
4
 1 -1
 -1 1
4
 1 -1
 -1 1
4
 1 -1
 -1 1
4
 1 -1
 -1 1
4
 1 -1
 -1 1
4
 1 -1
 -1 1
4
 1 -1
 -1 1
4
 1 -1
 -1 1
4
 1 -1
 -1 1
4
 1 -1
 -1 1
4
 1 -1
 -1 1
4
 1 -1
 -1 1
4
 1 -1
 -1 1
4
 1 -1
 -1 1
4
 1 -1
 -1 1
4
 1 -1
 -1 1
4
 1 -1
 -1 1
4
 1 -1
 -1 1
4
 1 -1
 -1 1
4
 1 -1
 -1 1
4
 1 -1
 -1 1
4
 1 -1
 -1 1
4
 1 -1
 -1 1
4
 1 -1
 -1 1
4
 1 -1
 -1 1
4
 1 -1
 -1 1
4
 1 -1
 -1 1
4
 1 -1
 -1 1
4
 1 -1
 -1 1
4
 1 -1
 -1 1
4
 1 -1
 -1 1
4
 1 -1
 -1 1
4
 1 -1
 -1 1
4
 1 -1
 -1 1
4
 1 -1
 -1 1
4
 1 -1
 -1 1
4
 1 -1
 -1 1
4
 1 -1
 -1 1
4
 1 -1
 -1 1
4
 1 -1
 -1 1
4
 1 -1
 -1 1
4
 1 -1
 -1 1
4
 1 -1
 -1 1
4
 1 -1
 -1 1
4
 1 -1
 -1 1
4
 1 -1
 -1 1
4
 1 -1
 -1 1
4
 1 -1
 -1 1
4
 1 -1
 -1 1
4
 1 -1
 -1 1
4
 1 -1
 -1 1
4
 1 -1
 -1 1
4
 1 -1
 -1 1
4
 1 -1
 -1 1
4
 1 -1
 -1 1
4
 1 -1
 -1 1
4
 1 -1
 -1 1
4
 1 -1
 -1 1
4
 1 -1
 -1 1
4
 1 -1
 -1 1
4
 1 -1
 -1 1
4
 1 -1
 -1 1
4
 1 -1
 -1 1
4
 1 -1
 -1 1
4
 1 -1
 -1 1
4
 1 -1
 -1 1
4
 1 -1
 -1 1
4
 1 -1
 -1 1
4
 1 -1
 -1 1
4
 1 -1
 -1 1
